NAME: random-84-24513
TYPE: TSP
COMMENT: size=84 seed=24513
DIMENSION: 170
EDGE_WEIGHT_TYPE: EUC_2D
NODE_COORD_SECTION
+0 991 809
-0 991 809
+1 917 87
-1 81 687
+2 302 653
-2 920 41
+3 653 537
-3 761 391
+4 954 341
-4 414 170
+5 688 99
-5 978 412
+6 206 977
-6 449 851
+7 149 219
-7 603 837
+8 505 510
-8 709 967
+9 198 410
-9 456 288
+10 486 741
-10 651 219
+11 215 878
-11 463 841
+12 974 182
-12 30 119
+13 488 786
-13 202 963
+14 490 960
-14 201 91
+15 161 209
-15 852 772
+16 218 713
-16 173 376
+17 860 500
-17 243 101
+18 331 869
-18 450 134
+19 617 99
-19 123 837
+20 71 991
-20 641 241
+21 120 178
-21 456 298
+22 510 567
-22 192 423
+23 277 559
-23 393 519
+24 961 212
-24 847 118
+25 23 71
-25 943 727
+26 385 890
-26 958 591
+27 122 59
-27 971 229
+28 867 177
-28 303 794
+29 194 582
-29 791 897
+30 570 431
-30 491 819
+31 909 431
-31 439 530
+32 280 905
-32 172 244
+33 871 529
-33 792 85
+34 785 704
-34 952 844
+35 815 210
-35 690 984
+36 367 330
-36 348 318
+37 395 900
-37 658 601
+38 152 935
-38 127 424
+39 675 172
-39 279 443
+40 574 912
-40 748 656
+41 429 228
-41 122 765
+42 183 416
-42 833 399
+43 646 769
-43 545 785
+44 809 350
-44 140 291
+45 656 32
-45 173 321
+46 180 933
-46 722 845
+47 842 466
-47 728 490
+48 156 515
-48 656 785
+49 506 673
-49 784 871
+50 636 524
-50 175 583
+51 47 571
-51 452 259
+52 52 258
-52 50 522
+53 683 194
-53 330 569
+54 188 8
-54 286 829
+55 662 41
-55 456 182
+56 735 912
-56 560 610
+57 751 970
-57 761 681
+58 771 228
-58 82 713
+59 690 44
-59 876 592
+60 464 49
-60 995 447
+61 722 478
-61 111 449
+62 352 927
-62 914 707
+63 325 98
-63 835 904
+64 476 749
-64 346 741
+65 28 417
-65 518 399
+66 561 895
-66 128 982
+67 492 28
-67 641 456
+68 868 775
-68 683 847
+69 603 694
-69 465 298
+70 850 137
-70 8 867
+71 198 282
-71 156 272
+72 310 842
-72 882 875
+73 290 738
-73 589 714
+74 983 160
-74 998 434
+75 840 880
-75 273 789
+76 399 164
-76 902 547
+77 923 608
-77 791 517
+78 775 277
-78 907 354
+79 759 682
-79 702 340
+80 202 178
-80 824 521
+81 261 374
-81 530 909
+82 650 677
-82 942 324
+83 703 714
-83 399 218
+84 940 534
-84 634 883
PRECEDENCE_SECTION
+0 -0
+1 -1
+2 -2
+3 -3
+4 -4
+5 -5
+6 -6
+7 -7
+8 -8
+9 -9
+10 -10
+11 -11
+12 -12
+13 -13
+14 -14
+15 -15
+16 -16
+17 -17
+18 -18
+19 -19
+20 -20
+21 -21
+22 -22
+23 -23
+24 -24
+25 -25
+26 -26
+27 -27
+28 -28
+29 -29
+30 -30
+31 -31
+32 -32
+33 -33
+34 -34
+35 -35
+36 -36
+37 -37
+38 -38
+39 -39
+40 -40
+41 -41
+42 -42
+43 -43
+44 -44
+45 -45
+46 -46
+47 -47
+48 -48
+49 -49
+50 -50
+51 -51
+52 -52
+53 -53
+54 -54
+55 -55
+56 -56
+57 -57
+58 -58
+59 -59
+60 -60
+61 -61
+62 -62
+63 -63
+64 -64
+65 -65
+66 -66
+67 -67
+68 -68
+69 -69
+70 -70
+71 -71
+72 -72
+73 -73
+74 -74
+75 -75
+76 -76
+77 -77
+78 -78
+79 -79
+80 -80
+81 -81
+82 -82
+83 -83
+84 -84
EOF
